NAME : portcgen-16-20
COMMENT : portcgen N=16, seed=20
TYPE : TSP
DIMENSION : 16
EDGE_WEIGHT_TYPE : EUC_2D
NODE_COORD_SECTION
1 363153 -103210
2 -143218 -27363
3 -686929 282304
4 207316 45839
5 125857 492620
6 -116286 -302235
7 5027 11800
8 -71301 -963493
9 125392 256030
10 157405 -141524
11 -158223 33716
12 102666 -179786
13 -264123 -148528
14 -183057 102211
15 517375 -480535
16 142437 -209377
